38
[-1, 0, 0, 37, 30, 0, 4, 0, 38, 91, 39, 93, 32, 0, 88, 67, 0, 24, 68, 72, 0, 0, 0, 0, 21, 0, 0, 0, 72, 0, 0, 39, 0, 49, 0, 0, 57, 50, 
0, -1, 0, 0, 0, 12, 85, 51, 0, 56, 0, 78, 91, 0, 0, 49, 0, 32, 15, 94, 31, 0, 0, 0, 0, 57, 40, 0, 85, 0, 46, 0, 0, 71, 0, 0, 8, 0, 
0, 0, -1, 23, 65, 60, 67, 31, 0, 93, 33, 49, 0, 0, 49, 0, 0, 0, 24, 37, 0, 0, 71, 23, 59, 0, 31, 97, 93, 0, 32, 92, 0, 63, 0, 0, 53, 100, 
37, 0, 23, -1, 0, 22, 0, 0, 39, 96, 65, 0, 0, 0, 0, 10, 0, 8, 89, 33, 75, 11, 0, 71, 0, 29, 0, 0, 69, 50, 0, 0, 0, 0, 16, 0, 0, 85, 
30, 0, 65, 0, -1, 39, 22, 3, 0, 0, 8, 82, 96, 81, 0, 89, 0, 0, 0, 0, 0, 65, 0, 0, 0, 0, 94, 63, 0, 18, 0, 0, 72, 62, 0, 60, 0, 0, 
0, 12, 60, 22, 39, -1, 56, 0, 74, 0, 0, 0, 8, 73, 0, 40, 0, 25, 65, 0, 0, 53, 0, 0, 0, 0, 34, 0, 13, 0, 71, 18, 0, 0, 40, 9, 0, 42, 
4, 85, 67, 0, 22, 56, -1, 6, 0, 83, 0, 0, 74, 0, 5, 66, 0, 96, 0, 86, 75, 48, 10, 0, 0, 7, 0, 0, 0, 15, 31, 0, 0, 87, 0, 10, 0, 32, 
0, 51, 31, 0, 3, 0, 6, -1, 81, 37, 0, 0, 0, 33, 55, 0, 57, 0, 0, 0, 92, 25, 12, 0, 0, 0, 0, 0, 89, 0, 0, 0, 0, 17, 52, 19, 0, 0, 
38, 0, 0, 39, 0, 74, 0, 81, -1, 0, 84, 98, 0, 0, 0, 0, 0, 0, 89, 0, 57, 0, 0, 0, 0, 1, 87, 0, 0, 19, 0, 57, 0, 79, 73, 0, 28, 0, 
91, 56, 93, 96, 0, 0, 83, 37, 0, -1, 0, 86, 0, 75, 78, 26, 0, 0, 32, 71, 0, 0, 0, 0, 85, 11, 10, 0, 0, 55, 29, 20, 0, 93, 0, 70, 60, 34, 
39, 0, 33, 65, 8, 0, 0, 0, 84, 0, -1, 0, 80, 89, 39, 0, 0, 0, 0, 0, 37, 63, 44, 31, 0, 90, 0, 26, 96, 15, 0, 0, 0, 0, 95, 100, 0, 87, 
93, 78, 49, 0, 82, 0, 0, 0, 98, 86, 0, -1, 0, 42, 6, 62, 14, 0, 74, 0, 0, 0, 0, 34, 51, 0, 69, 0, 24, 97, 56, 97, 0, 0, 89, 0, 28, 56, 
32, 91, 0, 0, 96, 8, 74, 0, 0, 0, 80, 0, -1, 27, 0, 60, 78, 0, 0, 16, 77, 0, 12, 0, 71, 0, 0, 91, 16, 0, 56, 0, 35, 0, 48, 0, 0, 0, 
0, 0, 0, 0, 81, 73, 0, 33, 0, 75, 89, 42, 27, -1, 21, 95, 0, 46, 24, 0, 0, 0, 16, 54, 0, 0, 0, 0, 39, 59, 0, 0, 0, 53, 0, 69, 0, 0, 
88, 0, 49, 0, 0, 0, 5, 55, 0, 78, 39, 6, 0, 21, -1, 0, 0, 84, 0, 0, 99, 12, 0, 0, 0, 82, 49, 1, 66, 91, 21, 1, 66, 0, 0, 0, 0, 0, 
67, 49, 0, 10, 89, 40, 66, 0, 0, 26, 0, 62, 60, 95, 0, -1, 16, 82, 0, 0, 0, 38, 0, 0, 0, 0, 39, 0, 0, 62, 0, 33, 0, 27, 52, 0, 87, 67, 
0, 0, 0, 0, 0, 0, 0, 57, 0, 0, 0, 14, 78, 0, 0, 16, -1, 0, 41, 0, 0, 75, 95, 18, 0, 0, 75, 48, 10, 62, 77, 0, 0, 0, 52, 0, 46, 2, 
24, 32, 0, 8, 0, 25, 96, 0, 0, 0, 0, 0, 0, 46, 84, 82, 0, -1, 0, 99, 53, 83, 0, 56, 0, 0, 0, 69, 1, 0, 0, 0, 0, 24, 94, 0, 54, 0, 
68, 15, 24, 89, 0, 65, 0, 0, 89, 32, 0, 74, 0, 24, 0, 0, 41, 0, -1, 0, 32, 73, 12, 0, 0, 89, 30, 36, 0, 32, 15, 0, 58, 16, 0, 51, 0, 0, 
72, 94, 37, 33, 0, 0, 86, 0, 0, 71, 0, 0, 16, 0, 0, 0, 0, 99, 0, -1, 91, 0, 0, 86, 0, 57, 0, 64, 81, 60, 0, 17, 66, 36, 0, 11, 92, 72, 
0, 31, 0, 75, 0, 0, 75, 92, 57, 0, 37, 0, 77, 0, 99, 0, 0, 53, 32, 91, -1, 0, 74, 67, 62, 93, 58, 12, 0, 10, 31, 0, 0, 19, 0, 33, 0, 0, 
0, 0, 0, 11, 65, 53, 48, 25, 0, 0, 63, 0, 0, 0, 12, 38, 75, 83, 73, 0, 0, -1, 0, 16, 0, 0, 24, 97, 54, 57, 0, 4, 0, 0, 35, 0, 0, 74, 
0, 0, 71, 0, 0, 0, 10, 12, 0, 0, 44, 0, 12, 16, 0, 0, 95, 0, 12, 0, 74, 0, -1, 0, 30, 0, 11, 0, 78, 66, 29, 90, 0, 62, 0, 96, 0, 82, 
0, 0, 23, 71, 0, 0, 0, 0, 0, 0, 31, 34, 0, 54, 0, 0, 18, 56, 0, 86, 67, 16, 0, -1, 86, 0, 28, 56, 83, 0, 0, 46, 0, 98, 0, 55, 52, 87, 
21, 0, 59, 0, 0, 0, 0, 0, 0, 85, 0, 51, 71, 0, 0, 0, 0, 0, 0, 0, 62, 0, 30, 86, -1, 4, 0, 0, 0, 57, 69, 0, 19, 65, 0, 18, 37, 0, 
0, 57, 0, 29, 0, 0, 7, 0, 1, 11, 90, 0, 0, 0, 82, 0, 0, 0, 89, 57, 93, 0, 0, 0, 4, -1, 0, 0, 0, 0, 0, 17, 0, 31, 83, 100, 0, 0, 
0, 40, 31, 0, 94, 34, 0, 0, 87, 10, 0, 69, 0, 0, 49, 39, 75, 0, 30, 0, 58, 24, 11, 28, 0, 0, -1, 0, 43, 0, 0, 0, 0, 0, 0, 0, 0, 0, 
0, 0, 97, 0, 63, 0, 0, 0, 0, 0, 26, 0, 91, 0, 1, 0, 48, 69, 36, 64, 12, 97, 0, 56, 0, 0, 0, -1, 0, 59, 24, 69, 98, 26, 30, 97, 0, 65, 
72, 85, 93, 69, 0, 13, 0, 89, 0, 0, 96, 24, 16, 39, 66, 0, 10, 1, 0, 81, 0, 54, 78, 83, 0, 0, 43, 0, -1, 3, 0, 55, 95, 50, 0, 0, 0, 36, 
0, 0, 0, 50, 18, 0, 15, 0, 19, 55, 15, 97, 0, 59, 91, 62, 62, 0, 32, 60, 10, 57, 66, 0, 57, 0, 0, 59, 3, -1, 65, 4, 27, 31, 13, 86, 13, 0, 
0, 46, 32, 0, 0, 71, 31, 0, 0, 29, 0, 56, 56, 0, 21, 0, 77, 0, 15, 0, 31, 0, 29, 0, 69, 0, 0, 24, 0, 65, -1, 0, 0, 0, 90, 0, 0, 26, 
39, 0, 92, 0, 0, 18, 0, 0, 57, 20, 0, 97, 0, 0, 1, 33, 0, 0, 0, 17, 0, 4, 90, 46, 0, 17, 0, 69, 55, 4, 0, -1, 0, 86, 47, 84, 0, 0, 
0, 0, 0, 0, 72, 0, 0, 0, 0, 0, 0, 0, 35, 0, 66, 0, 0, 0, 58, 66, 0, 0, 0, 0, 19, 0, 0, 98, 95, 27, 0, 0, -1, 10, 0, 13, 99, 0, 
49, 71, 63, 0, 62, 0, 87, 17, 79, 93, 0, 0, 0, 53, 0, 27, 0, 24, 16, 36, 19, 0, 62, 98, 65, 31, 0, 26, 50, 31, 0, 86, 10, -1, 0, 34, 0, 65, 
0, 0, 0, 16, 0, 40, 0, 52, 73, 0, 95, 89, 48, 0, 0, 52, 52, 94, 0, 0, 0, 35, 0, 0, 0, 83, 0, 30, 0, 13, 90, 47, 0, 0, -1, 0, 73, 35, 
0, 0, 0, 0, 60, 9, 10, 19, 0, 70, 100, 0, 0, 69, 0, 0, 0, 0, 51, 11, 33, 0, 96, 55, 18, 100, 0, 97, 0, 86, 0, 84, 13, 34, 0, -1, 42, 51, 
57, 8, 53, 0, 0, 0, 0, 0, 28, 60, 0, 28, 0, 0, 0, 87, 46, 54, 0, 92, 0, 0, 0, 52, 37, 0, 0, 0, 0, 13, 0, 0, 99, 0, 73, 42, -1, 0, 
50, 0, 100, 85, 0, 42, 32, 0, 0, 34, 87, 56, 0, 0, 0, 67, 2, 0, 0, 72, 0, 74, 82, 87, 0, 0, 0, 65, 36, 0, 26, 0, 0, 65, 35, 51, 0, -1]